NAME : TTS
COMMENT : Traveling Tesla Salesman
TYPE : TSP
DIMENSION : 7
EDGE_WEIGHT_TYPE : GEOM
NODE_COORD_SECTION
0 29.956010 -90.073980
1 29.953160 -90.066170
2 29.957032 -90.064749
3 29.933560 -90.070010
4 29.917410 -90.100780
5 30.029010 -90.052270
6 29.954075 -90.136384
